     Program PWSCF v.6.7MaX starts on 12Jun2025 at  2:21:12

     R & G space division:  proc/nbgrp/npool/nimage =       8
     Waiting for input...
     Reading input from standard input
Warning: card &CELL ignored
Warning: card / ignored
Warning: card &FCP ignored
Warning: card / ignored
Warning: card &RISM ignored
Warning: card / ignored

     Current dimensions of program PWSCF are:
     Max number of different atomic species (ntypx) = 10
     Max number of k-points (npk) =  40000
     Max angular momentum in pseudopotentials (lmaxx) =  3

     bravais-lattice index     =            0
     lattice parameter (alat)  =      14.5482  a.u.
     unit-cell volume          =    2177.2571 (a.u.)^3
     number of atoms/cell      =           16
     number of atomic types    =            2
     number of electrons       =        67.00
     number of Kohn-Sham states=           41
     kinetic-energy cutoff     =      30.0000  Ry
     charge density cutoff     =     240.0000  Ry
     scf convergence threshold =      1.0E-08
     mixing beta               =       0.4000
     number of iterations used =            8  plain     mixing
     Exchange-correlation= PBE
                           (   1   4   3   4   0   0   0)

     celldm(1)=  14.548164  celldm(2)=   0.000000  celldm(3)=   0.000000
     celldm(4)=   0.000000  celldm(5)=   0.000000  celldm(6)=   0.000000

     crystal axes: (cart. coord. in units of alat)
               a(1) = (   0.866025   0.000000   0.500000 )
               a(2) = (   0.288675   0.816497   0.500000 )
               a(3) = (   0.000000   0.000000   1.000000 )

     reciprocal axes: (cart. coord. in units 2 pi/alat)
               b(1) = (  1.154700 -0.408248  0.000000 )
               b(2) = (  0.000000  1.224744  0.000000 )
               b(3) = ( -0.577350 -0.408248  1.000000 )

     PseudoPot. # 1 for Si read from file:
     /home/ayush/personal/material_study/pseudos/si.UPF
     MD5 check sum: 0b0bb1205258b0d07b9f9672cf965d36
     Pseudo is Ultrasoft + core correction, Zval =  4.0
     Generated using "atomic" code by A. Dal Corso  v.5.1
     Using radial grid of 1141 points,  6 beta functions with:
                l(1) =   0
                l(2) =   0
                l(3) =   1
                l(4) =   1
                l(5) =   2
                l(6) =   2
     Q(r) pseudized with 0 coefficients

     PseudoPot. # 2 for P  read from file:
     /home/ayush/personal/material_study/pseudos/p.UPF
     MD5 check sum: 8b930f418f0a4573dca56cd030ffe088
     Pseudo is Ultrasoft + core correction, Zval =  5.0
     Generated using "atomic" code by A. Dal Corso  v.5.1
     Using radial grid of 1147 points,  6 beta functions with:
                l(1) =   0
                l(2) =   0
                l(3) =   1
                l(4) =   1
                l(5) =   2
                l(6) =   2
     Q(r) pseudized with 0 coefficients

     atomic species   valence    mass     pseudopotential
        Si             4.00    28.08500     Si( 1.00)
        P              5.00    30.97376     P ( 1.00)

     No symmetry found

                                    s                        frac. trans.

      isym =  1     identity

 cryst.   s( 1) = (     1          0          0      )
                  (     0          1          0      )
                  (     0          0          1      )

 cart.    s( 1) = (  1.0000000  0.0000000  0.0000000 )
                  (  0.0000000  1.0000000  0.0000000 )
                  ( -0.0000000  0.0000000  1.0000000 )

   Cartesian axes

     site n.     atom                  positions (alat units)
         1           Si  tau(   1) = (   0.5032713   0.3560041   0.8764404  )
         2           Si  tau(   2) = (   0.5056258   0.3563145   1.3737821  )
         3           Si  tau(   3) = (   0.6477830   0.7666324   1.1259026  )
         4           Si  tau(   4) = (   0.6489150   0.7679469   1.6241780  )
         5           Si  tau(   5) = (   0.9370346   0.3568089   1.1242719  )
         6           P   tau(   6) = (   0.9390463   0.3571304   1.6253498  )
         7           P   tau(   7) = (   1.0987664   0.7601968   1.3757686  )
         8           Si  tau(   8) = (   1.0815479   0.7655543   1.8739675  )
         9           Si  tau(   9) = (   0.0733641   0.0474166   0.1266761  )
        10           Si  tau(  10) = (   0.0744967   0.0496639   0.6241113  )
        11           Si  tau(  11) = (   0.2172236   0.4597213   0.3761354  )
        12           Si  tau(  12) = (   0.2196902   0.4612895   0.8732319  )
        13           Si  tau(  13) = (   0.5050813   0.0517046   0.3755788  )
        14           P   tau(  14) = (   0.4888817   0.0564902   0.8745038  )
        15           Si  tau(  15) = (   0.6475914   0.4595263   0.6242899  )
        16           Si  tau(  16) = (   0.6492852   0.4595749   1.1258103  )

   Crystallographic axes

     site n.     atom                  positions (cryst. coord.)
         1           Si  tau(   1) = (  0.4357896  0.4360140  0.4405387  )
         2           Si  tau(   2) = (  0.4383817  0.4363942  0.9363943  )
         3           Si  tau(   3) = (  0.4350191  0.9389288  0.4389288  )
         4           Si  tau(   4) = (  0.4357896  0.9405386  0.9360141  )
         5           Si  tau(   5) = (  0.9363278  0.4369996  0.4376083  )
         6           P   tau(   6) = (  0.9385194  0.4373934  0.9373935  )
         7           P   tau(   7) = (  0.9583972  0.9310467  0.4310468  )
         8           Si  tau(   8) = (  0.9363278  0.9376083  0.9369997  )
         9           Si  tau(   9) = (  0.0653558  0.0580732  0.0649616  )
        10           Si  tau(  10) = (  0.0657462  0.0608256  0.5608255  )
        11           Si  tau(  11) = (  0.0631479  0.5630410  0.0630410  )
        12           Si  tau(  12) = (  0.0653558  0.5649617  0.5580732  )
        13           Si  tau(  13) = (  0.5621094  0.0633249  0.0628617  )
        14           P   tau(  14) = (  0.5414500  0.0691860  0.5691859  )
        15           Si  tau(  15) = (  0.5601734  0.5628022  0.0628022  )
        16           Si  tau(  16) = (  0.5621094  0.5628617  0.5633249  )

     number of k points=    36  Gaussian smearing, width (Ry)=  0.0100
                       cart. coord. in units 2pi/alat
        k(    1) = (   0.0000000   0.0000000   0.0000000), wk =   0.0312500
        k(    2) = (  -0.1443376  -0.1020620   0.2500000), wk =   0.0625000
        k(    3) = (   0.2886751   0.2041241  -0.5000001), wk =   0.0312500
        k(    4) = (   0.0000000   0.3061861   0.0000000), wk =   0.0625000
        k(    5) = (  -0.1443376   0.2041241   0.2500000), wk =   0.0625000
        k(    6) = (   0.2886751   0.5103101  -0.5000001), wk =   0.0625000
        k(    7) = (   0.1443376   0.4082481  -0.2500000), wk =   0.0625000
        k(    8) = (   0.0000000  -0.6123722   0.0000000), wk =   0.0312500
        k(    9) = (  -0.1443376  -0.7144342   0.2500000), wk =   0.0625000
        k(   10) = (   0.2886751  -0.4082481  -0.5000001), wk =   0.0312500
        k(   11) = (   0.2886751  -0.1020620   0.0000000), wk =   0.0625000
        k(   12) = (   0.5773502   0.1020620  -0.5000001), wk =   0.0625000
        k(   13) = (   0.4330127  -0.0000000  -0.2500000), wk =   0.0625000
        k(   14) = (   0.2886751   0.2041241   0.0000000), wk =   0.0625000
        k(   15) = (   0.5773502   0.4082481  -0.5000001), wk =   0.0625000
        k(   16) = (   0.4330127   0.3061861  -0.2500000), wk =   0.0625000
        k(   17) = (   0.2886751  -0.7144342   0.0000000), wk =   0.0625000
        k(   18) = (   0.4330127  -0.6123722  -0.2500000), wk =   0.0625000
        k(   19) = (   0.2886751  -0.4082481   0.0000000), wk =   0.0625000
        k(   20) = (   0.5773502  -0.2041241  -0.5000001), wk =   0.0625000
        k(   21) = (   0.4330127  -0.3061861  -0.2500000), wk =   0.0625000
        k(   22) = (  -0.5773502   0.2041241   0.0000000), wk =   0.0312500
        k(   23) = (  -0.5773502   0.5103101   0.0000000), wk =   0.0625000
        k(   24) = (  -0.5773502  -0.4082481   0.0000000), wk =   0.0312500
        k(   25) = (   0.1443376   0.1020620   0.2500000), wk =   0.0625000
        k(   26) = (  -0.2886751  -0.2041241  -0.5000001), wk =   0.0312500
        k(   27) = (   0.1443376  -0.2041241   0.2500000), wk =   0.0625000
        k(   28) = (  -0.2886751  -0.5103101  -0.5000001), wk =   0.0625000
        k(   29) = (  -0.1443376  -0.4082481  -0.2500000), wk =   0.0625000
        k(   30) = (   0.1443376   0.7144342   0.2500000), wk =   0.0625000
        k(   31) = (  -0.2886751   0.4082481  -0.5000001), wk =   0.0312500
        k(   32) = (  -0.5773502  -0.1020620  -0.5000001), wk =   0.0625000
        k(   33) = (  -0.4330127   0.0000000  -0.2500000), wk =   0.0625000
        k(   34) = (  -0.4330127  -0.3061861  -0.2500000), wk =   0.0625000
        k(   35) = (  -0.4330127   0.6123722  -0.2500000), wk =   0.0625000
        k(   36) = (  -0.4330127   0.3061861  -0.2500000), wk =   0.0625000

                       cryst. coord.
        k(    1) = (   0.0000000   0.0000000   0.0000000), wk =   0.0312500
        k(    2) = (   0.0000000   0.0000000   0.2500000), wk =   0.0625000
        k(    3) = (   0.0000000  -0.0000000  -0.5000000), wk =   0.0312500
        k(    4) = (   0.0000000   0.2500000   0.0000000), wk =   0.0625000
        k(    5) = (   0.0000000   0.2500000   0.2500000), wk =   0.0625000
        k(    6) = (   0.0000000   0.2500000  -0.5000000), wk =   0.0625000
        k(    7) = (   0.0000000   0.2500000  -0.2500000), wk =   0.0625000
        k(    8) = (   0.0000000  -0.5000000   0.0000000), wk =   0.0312500
        k(    9) = (   0.0000000  -0.5000000   0.2500000), wk =   0.0625000
        k(   10) = (   0.0000000  -0.5000000  -0.5000000), wk =   0.0312500
        k(   11) = (   0.2500000  -0.0000000   0.0000000), wk =   0.0625000
        k(   12) = (   0.2500000  -0.0000000  -0.5000000), wk =   0.0625000
        k(   13) = (   0.2500000  -0.0000000  -0.2500000), wk =   0.0625000
        k(   14) = (   0.2500000   0.2500000   0.0000000), wk =   0.0625000
        k(   15) = (   0.2500000   0.2500000  -0.5000000), wk =   0.0625000
        k(   16) = (   0.2500000   0.2500000  -0.2500000), wk =   0.0625000
        k(   17) = (   0.2500000  -0.5000000   0.0000000), wk =   0.0625000
        k(   18) = (   0.2500000  -0.5000000  -0.2500000), wk =   0.0625000
        k(   19) = (   0.2500000  -0.2500000   0.0000000), wk =   0.0625000
        k(   20) = (   0.2500000  -0.2500000  -0.5000000), wk =   0.0625000
        k(   21) = (   0.2500000  -0.2500000  -0.2500000), wk =   0.0625000
        k(   22) = (  -0.5000000   0.0000000   0.0000000), wk =   0.0312500
        k(   23) = (  -0.5000000   0.2500000   0.0000000), wk =   0.0625000
        k(   24) = (  -0.5000000  -0.5000000   0.0000000), wk =   0.0312500
        k(   25) = (   0.2500000   0.2500000   0.2500000), wk =   0.0625000
        k(   26) = (  -0.5000000  -0.5000000  -0.5000000), wk =   0.0312500
        k(   27) = (   0.2500000  -0.0000000   0.2500000), wk =   0.0625000
        k(   28) = (  -0.5000000  -0.7500000  -0.5000000), wk =   0.0625000
        k(   29) = (  -0.2500000  -0.5000000  -0.2500000), wk =   0.0625000
        k(   30) = (   0.2500000   0.7500000   0.2500000), wk =   0.0625000
        k(   31) = (  -0.5000000   0.0000000  -0.5000000), wk =   0.0312500
        k(   32) = (  -0.7500000  -0.5000000  -0.5000000), wk =   0.0625000
        k(   33) = (  -0.5000000  -0.2500000  -0.2500000), wk =   0.0625000
        k(   34) = (  -0.5000000  -0.5000000  -0.2500000), wk =   0.0625000
        k(   35) = (  -0.5000000   0.2500000  -0.2500000), wk =   0.0625000
        k(   36) = (  -0.5000000   0.0000000  -0.2500000), wk =   0.0625000

     Initial potential from superposition of free atoms

     starting charge   66.99225, renormalised to   67.00000
     Starting wfcs are   64 randomized atomic wfcs

     Self-consistent Calculation

     iteration #  1     ecut=    30.00 Ry     beta= 0.40
     Davidson diagonalization with overlap
     ethr =  1.00E-02,  avg # of iterations =  3.3

     Threshold (ethr) on eigenvalues was too large:
     Diagonalizing with lowered threshold

     Davidson diagonalization with overlap
     ethr =  5.44E-04,  avg # of iterations =  4.6

     total energy              =    -190.52271928 Ry
     estimated scf accuracy    <       0.40113880 Ry

[...]

     iteration #  3     ecut=    30.00 Ry     beta= 0.40
     Davidson diagonalization with overlap
     c_bands:  1 eigenvalues not converged
     ethr =  1.65E-04,  avg # of iterations =  9.2

[...]

     iteration #  5     ecut=    30.00 Ry     beta= 0.40
     Davidson diagonalization with overlap
     c_bands:  2 eigenvalues not converged
     ethr =  2.56E-06,  avg # of iterations =  9.5

[...]

     total energy              =    -190.52672507 Ry
     estimated scf accuracy    <       0.00000002 Ry

     iteration # 12     ecut=    30.00 Ry     beta= 0.40
     Davidson diagonalization with overlap
     ethr =  2.41E-11,  avg # of iterations =  2.9

     End of self-consistent calculation

          k = 0.0000 0.0000 0.0000 (  5985 PWs)   bands (ev):

    -6.6311  -5.2853  -4.7388  -4.0711  -3.5220  -2.9783  -2.3101  -2.0938
    -1.8358  -1.7961  -1.7182  -1.1185  -1.0661  -0.9868  -0.9499   2.5481
     2.6056   2.6774   2.9160   2.9787   3.1581   3.9053   4.0870   4.3316
     4.5432   4.5536   4.6691   4.8638   4.9536   5.5581   5.6863   5.8492
     5.8922   6.1880   6.5039   6.8076   6.8415   6.9632   7.0756   7.2385
     7.5196

     occupation numbers
     1.0000   1.0000   1.0000   1.0000   1.0000   1.0000   1.0000   1.0000
     1.0000   1.0000   1.0000   1.0000   1.0000   1.0000   1.0000   1.0000
     1.0000   1.0000   1.0000   1.0000   1.0000   1.0000   1.0000   1.0000
     1.0000   1.0000   1.0000   1.0000   1.0000   1.0000   1.0000   1.0000
     1.0000   1.0000   1.0000   0.9996   0.9988   0.9610   0.7237   0.1358
     0.0000

          k =-0.1443-0.1021 0.2500 (  6045 PWs)   bands (ev):

[...]

          k = 0.1443 0.7144 0.2500 (  6038 PWs)   bands (ev):

[...]

          k =-0.4330 0.3062-0.2500 (  6038 PWs)   bands (ev):

    -6.1248  -5.6380  -5.2298  -4.0579  -3.8292  -3.3510  -2.9575  -2.6785
    -1.6279  -1.2327  -0.8000  -0.3120  -0.1462   0.8151   1.1500   1.6142
     1.8704   2.0939   2.2060   2.4564   2.5738   2.7200   2.7971   3.2169
     3.4841   3.5676   3.7702   3.8058   4.0798   4.3790   4.6585   5.0102
     6.9960   7.4647   7.5841   7.9913   8.1967   8.3617   8.5695   8.6206
     8.7946

     occupation numbers
     1.0000   1.0000   1.0000   1.0000   1.0000   1.0000   1.0000   1.0000
     1.0000   1.0000   1.0000   1.0000   1.0000   1.0000   1.0000   1.0000
     1.0000   1.0000   1.0000   1.0000   1.0000   1.0000   1.0000   1.0000
     1.0000   1.0000   1.0000   1.0000   1.0000   1.0000   1.0000   1.0000
     0.9224   0.0003   0.0000   0.0000   0.0000   0.0000   0.0000   0.0000
     0.0000

     the Fermi energy is     7.1328 ev

!    total energy              =    -190.52672507 Ry
     estimated scf accuracy    <          1.8E-09 Ry
     smearing contrib. (-TS)   =      -0.00217301 Ry
     internal energy E=F+TS    =    -190.52455206 Ry

     The total energy is F=E-TS. E is the sum of the following terms:
     one-electron contribution =      38.29058330 Ry
     hartree contribution      =      11.46037240 Ry
     xc contribution           =     -92.84691856 Ry
     ewald contribution        =    -147.42858919 Ry

     convergence has been achieved in  12 iterations

     Writing output data file /home/ayush/personal/material_study/out/mp-149_si_p_doping/si_p.save/

     General routines

     Parallel routines

   This run was terminated on:   2:23:12  12Jun2025

   JOB DONE.