     Program PWSCF v.6.7MaX starts on 10Jun2025 at  0:52: 2

     R & G space division:  proc/nbgrp/npool/nimage =       8
     Waiting for input...
     Reading input from standard input
Warning: card &CELL ignored
Warning: card / ignored
Warning: card &FCP ignored
Warning: card / ignored
Warning: card &RISM ignored
Warning: card / ignored

     Current dimensions of program PWSCF are:
     Max number of different atomic species (ntypx) = 10
     Max number of k-points (npk) =  40000
     Max angular momentum in pseudopotentials (lmaxx) =  3
     file P.UPF: wavefunction(s)  3S 3P renormalized
     file Si.UPF: wavefunction(s)  3S 3P renormalized

     Message from routine setup:
     using ibrav=0 with symmetry is DISCOURAGED, use correct ibrav instead

     bravais-lattice index     =            0
     lattice parameter (alat)  =       7.2741  a.u.
     unit-cell volume          =     272.1571 (a.u.)^3
     number of atoms/cell      =            2
     number of atomic types    =            2
     number of electrons       =         9.00
     number of Kohn-Sham states=            9
     kinetic-energy cutoff     =      30.0000  Ry
     charge density cutoff     =     240.0000  Ry
     scf convergence threshold =      1.0E-08
     mixing beta               =       0.4000
     number of iterations used =            8  plain     mixing
     Exchange-correlation= SLA  PW   PBX  PBC
                           (   1   4   3   4   0   0   0)

     celldm(1)=   7.274082  celldm(2)=   0.000000  celldm(3)=   0.000000
     celldm(4)=   0.000000  celldm(5)=   0.000000  celldm(6)=   0.000000

     crystal axes: (cart. coord. in units of alat)
               a(1) = (   0.866025   0.000000   0.500000 )
               a(2) = (   0.288675   0.816497   0.500000 )
               a(3) = (   0.000000   0.000000   1.000000 )

     reciprocal axes: (cart. coord. in units 2 pi/alat)
               b(1) = (  1.154700 -0.408248  0.000000 )
               b(2) = (  0.000000  1.224744  0.000000 )
               b(3) = ( -0.577350 -0.408248  1.000000 )

     PseudoPot. # 1 for P  read from file:
     /home/ayush/personal/material_study/pseudos/P.UPF
     MD5 check sum: 06b8cad1975795032ee26009bb7624c7
     Pseudo is Projector augmented-wave + core cor, Zval =  5.0
     Generated using &quot;atomic&quot; code by A. Dal Corso  v.6.3
     Shape of augmentation charge: PSQ
     Using radial grid of 1147 points,  6 beta functions with:
                l(1) =   0
                l(2) =   0
                l(3) =   1
                l(4) =   1
                l(5) =   2
                l(6) =   2
     Q(r) pseudized with 0 coefficients

     PseudoPot. # 2 for Si read from file:
     /home/ayush/personal/material_study/pseudos/Si.UPF
     MD5 check sum: c39c59da582df4a0d9f10159256ea34e
     Pseudo is Projector augmented-wave + core cor, Zval =  4.0
     Generated using &quot;atomic&quot; code by A. Dal Corso  v.6.3
     Shape of augmentation charge: PSQ
     Using radial grid of 1141 points,  6 beta functions with:
                l(1) =   0
                l(2) =   0
                l(3) =   1
                l(4) =   1
                l(5) =   2
                l(6) =   2
     Q(r) pseudized with 0 coefficients

     atomic species   valence    mass     pseudopotential
        P              5.00    30.97376     P ( 1.00)
        Si             4.00    28.08500     Si( 1.00)

      2 Sym. Ops. (no inversion) found ( 1 have fractional translation)

                                    s                        frac. trans.

      isym =  1     identity

 cryst.   s( 1) = (     1          0          0      )
                  (     0          1          0      )
                  (     0          0          1      )

 cart.    s( 1) = (  1.0000000  0.0000000  0.0000000 )
                  (  0.0000000  1.0000000  0.0000000 )
                  (  0.0000000  0.0000000  1.0000000 )

      isym =  2     inv. 180 deg rotation - cart. axis [0,0,1]

 cryst.   s( 2) = (     1          0         -1      )    f =(  0.0000000 )
                  (     0          1         -1      )       (  0.0000000 )
                  (     0          0         -1      )       (  0.5000000 )

 cart.    s( 2) = (  1.0000000  0.0000000  0.0000000 )    f =(  0.0000000 )
                  (  0.0000000  1.0000000  0.0000000 )       (  0.0000000 )
                  ( -0.0000000 -0.0000000 -1.0000000 )       (  0.4999999 )

   Cartesian axes

     site n.     atom                  positions (alat units)
         1           P   tau(   1) = (   1.0103630   0.7144348   1.7499998  )
         2           Si  tau(   2) = (   0.1443376   0.1020621   0.2500000  )

   Crystallographic axes

     site n.     atom                  positions (cryst. coord.)
         1           P   tau(   1) = (  0.8750000  0.8750000  0.8750000  )
         2           Si  tau(   2) = (  0.1250000  0.1250000  0.1250000  )

     number of k points=    24  Gaussian smearing, width (Ry)=  0.0100
                       cart. coord. in units 2pi/alat
        k(    1) = (   0.0000000   0.0000000   0.0000000), wk =   0.0312500
        k(    2) = (  -0.1443376  -0.1020620   0.2500000), wk =   0.1250000
        k(    3) = (   0.2886751   0.2041241  -0.5000001), wk =   0.0625000
        k(    4) = (   0.0000000   0.3061861   0.0000000), wk =   0.0625000
        k(    5) = (  -0.1443376   0.2041241   0.2500000), wk =   0.1250000
        k(    6) = (   0.2886751   0.5103101  -0.5000001), wk =   0.1250000
        k(    7) = (   0.1443376   0.4082481  -0.2500000), wk =   0.1250000
        k(    8) = (   0.0000000  -0.6123722   0.0000000), wk =   0.0312500
        k(    9) = (  -0.1443376  -0.7144342   0.2500000), wk =   0.1250000
        k(   10) = (   0.2886751  -0.4082481  -0.5000001), wk =   0.0625000
        k(   11) = (   0.2886751  -0.1020620   0.0000000), wk =   0.0625000
        k(   12) = (   0.5773502   0.1020620  -0.5000001), wk =   0.1250000
        k(   13) = (   0.4330127  -0.0000000  -0.2500000), wk =   0.1250000
        k(   14) = (   0.2886751   0.2041241   0.0000000), wk =   0.0625000
        k(   15) = (   0.5773502   0.4082481  -0.5000001), wk =   0.0625000
        k(   16) = (   0.4330127   0.3061861  -0.2500000), wk =   0.1250000
        k(   17) = (   0.2886751  -0.7144342   0.0000000), wk =   0.0625000
        k(   18) = (   0.4330127  -0.6123722  -0.2500000), wk =   0.1250000
        k(   19) = (   0.2886751  -0.4082481   0.0000000), wk =   0.0625000
        k(   20) = (   0.5773502  -0.2041241  -0.5000001), wk =   0.0625000
        k(   21) = (   0.4330127  -0.3061861  -0.2500000), wk =   0.1250000
        k(   22) = (  -0.5773502   0.2041241   0.0000000), wk =   0.0312500
        k(   23) = (  -0.5773502   0.5103101   0.0000000), wk =   0.0625000
        k(   24) = (  -0.5773502  -0.4082481   0.0000000), wk =   0.0312500

                       cryst. coord.
        k(    1) = (   0.0000000   0.0000000   0.0000000), wk =   0.0312500
        k(    2) = (   0.0000000   0.0000000   0.2500000), wk =   0.1250000
        k(    3) = (   0.0000000   0.0000000  -0.5000000), wk =   0.0625000
        k(    4) = (   0.0000000   0.2500000   0.0000000), wk =   0.0625000
        k(    5) = (   0.0000000   0.2500000   0.2500000), wk =   0.1250000
        k(    6) = (   0.0000000   0.2500000  -0.5000000), wk =   0.1250000
        k(    7) = (   0.0000000   0.2500000  -0.2500000), wk =   0.1250000
        k(    8) = (   0.0000000  -0.5000000   0.0000000), wk =   0.0312500
        k(    9) = (   0.0000000  -0.5000000   0.2500000), wk =   0.1250000
        k(   10) = (   0.0000000  -0.5000000  -0.5000000), wk =   0.0625000
        k(   11) = (   0.2500000   0.0000000   0.0000000), wk =   0.0625000
        k(   12) = (   0.2500000   0.0000000  -0.5000000), wk =   0.1250000
        k(   13) = (   0.2500000   0.0000000  -0.2500000), wk =   0.1250000
        k(   14) = (   0.2500000   0.2500000   0.0000000), wk =   0.0625000
        k(   15) = (   0.2500000   0.2500000  -0.5000000), wk =   0.0625000
        k(   16) = (   0.2500000   0.2500000  -0.2500000), wk =   0.1250000
        k(   17) = (   0.2500000  -0.5000000   0.0000000), wk =   0.0625000
        k(   18) = (   0.2500000  -0.5000000  -0.2500000), wk =   0.1250000
        k(   19) = (   0.2500000  -0.2500000   0.0000000), wk =   0.0625000
        k(   20) = (   0.2500000  -0.2500000  -0.5000000), wk =   0.0625000
        k(   21) = (   0.2500000  -0.2500000  -0.2500000), wk =   0.1250000
        k(   22) = (  -0.5000000   0.0000000   0.0000000), wk =   0.0312500
        k(   23) = (  -0.5000000   0.2500000   0.0000000), wk =   0.0625000
        k(   24) = (  -0.5000000  -0.5000000   0.0000000), wk =   0.0312500

     Initial potential from superposition of free atoms

     starting charge    8.99928, renormalised to    9.00000
     Starting wfcs are    8 randomized atomic wfcs +    1 random wfcs
     Checking if some PAW data can be deallocated...

     Self-consistent Calculation

     iteration #  1     ecut=    30.00 Ry     beta= 0.40
     Davidson diagonalization with overlap
     ethr =  1.00E-02,  avg # of iterations =  5.5

     Threshold (ethr) on eigenvalues was too large:
     Diagonalizing with lowered threshold

     Davidson diagonalization with overlap
     ethr =  3.72E-04,  avg # of iterations =  2.6

     total energy              =    -102.24371652 Ry
     estimated scf accuracy    <       0.03620607 Ry

[...]

     total energy              =    -102.24391930 Ry
     estimated scf accuracy    <       0.00000002 Ry

     iteration #  8     ecut=    30.00 Ry     beta= 0.40
     Davidson diagonalization with overlap
     ethr =  1.78E-10,  avg # of iterations =  1.2

     End of self-consistent calculation

          k = 0.0000 0.0000 0.0000 (   749 PWs)   bands (ev):

    -7.1103   4.7317   4.7317   4.7317   6.5011   8.2340   8.2340   8.2340
    13.8223

     occupation numbers
     1.0000   1.0000   1.0000   1.0000   1.0000   0.0000   0.0000   0.0000
     0.0000

          k =-0.1443-0.1021 0.2500 (   757 PWs)   bands (ev):

[...]

          k = 0.4330-0.3062-0.2500 (   758 PWs)   bands (ev):

[...]

          k =-0.5774-0.4082 0.0000 (   740 PWs)   bands (ev):

    -4.2682  -2.0149   2.3616   2.3616   6.3782   6.6118  14.6295  14.6295
    16.4737

     occupation numbers
     1.0000   1.0000   1.0000   1.0000   1.0000   1.0000   0.0000   0.0000
     0.0000

     the Fermi energy is     7.1034 ev

!    total energy              =    -102.24391930 Ry

     total all-electron energy =     -1264.253224 Ry
     estimated scf accuracy    <          6.6E-11 Ry
     smearing contrib. (-TS)   =      -0.00184578 Ry
     internal energy E=F+TS    =    -102.24207352 Ry

     The total energy is F=E-TS. E is the sum of the following terms:
     one-electron contribution =       5.34466353 Ry
     hartree contribution      =       1.85040536 Ry
     xc contribution           =     -10.45547874 Ry
     ewald contribution        =     -21.39151394 Ry
     one-center paw contrib.   =     -77.59014973 Ry
      -> PAW hartree energy AE =       6.87880500 Ry
      -> PAW hartree energy PS =      -6.84801334 Ry
      -> PAW xc energy AE      =     -45.61942758 Ry
      -> PAW xc energy PS      =       3.57933164 Ry
      -> total E_H with PAW    =       1.88119702 Ry
      -> total E_XC with PAW   =     -52.49557468 Ry

     convergence has been achieved in   8 iterations

     Writing output data file /home/ayush/personal/material_study/out/mp-149_si_p_doping/si_p.save/

     General routines

     Parallel routines

     PAW routines

   This run was terminated on:   0:52: 3  10Jun2025

   JOB DONE.